
Gurobi 9.5.2 (mac64[arm]) logging started Mon Apr 24 17:12:25 2023

Set parameter LogFile to value "Java/output/iterative_model/scenario_seed_4_nJob_40_machineCount_1/mip_increment_1/log.txt"
Gurobi Optimizer version 9.5.2 build v9.5.2rc0 (mac64[arm])
Thread count: 8 physical cores, 8 logical processors, using up to 8 threads
Optimize a model with 1915 rows, 13201 columns and 142463 nonzeros
Model fingerprint: 0x42ce75bf
Variable types: 0 continuous, 13201 integer (13201 binary)
Coefficient statistics:
  Matrix range     [1e+00, 3e+02]
  Objective range  [2e+01, 9e+06]
  Bounds range     [1e+00, 1e+00]
  RHS range        [1e+00, 1e+00]
Found heuristic solution: objective 5.416386e+07
Presolve removed 88 rows and 1153 columns
Presolve time: 0.16s
Presolved: 1827 rows, 12048 columns, 126897 nonzeros
Variable types: 0 continuous, 12048 integer (12036 binary)
Found heuristic solution: objective 4.000984e+07

Root relaxation: objective 1.055932e+04, 3003 iterations, 0.13 seconds (0.29 work units)

    Nodes    |    Current Node    |     Objective Bounds      |     Work
 Expl Unexpl |  Obj  Depth IntInf | Incumbent    BestBd   Gap | It/Node Time

     0     0 10559.3229    0  137 4.0010e+07 10559.3229   100%     -    0s
H    0     0                    7678496.0000 10559.3229   100%     -    0s
H    0     0                    7678368.0000 10559.3229   100%     -    0s
H    0     0                    753392.00000 10573.5358  98.6%     -    0s
H    0     0                    753344.00000 10573.5358  98.6%     -    0s
     0     0 10573.5358    0  181 753344.000 10573.5358  98.6%     -    0s
     0     0 10573.6331    0  179 753344.000 10573.6331  98.6%     -    0s
     0     0 10581.2630    0  174 753344.000 10581.2630  98.6%     -    1s
     0     0 10581.3463    0  182 753344.000 10581.3463  98.6%     -    1s
     0     0 10581.3463    0  182 753344.000 10581.3463  98.6%     -    1s
     0     0 10597.8180    0  251 753344.000 10597.8180  98.6%     -    1s
H    0     0                    752496.00000 10597.8180  98.6%     -    1s
H    0     0                    752064.00000 10601.9019  98.6%     -    1s
H    0     0                    751792.00000 10601.9019  98.6%     -    1s
     0     0 10601.9019    0  261 751792.000 10601.9019  98.6%     -    1s
     0     0 10602.8209    0  269 751792.000 10602.8209  98.6%     -    1s
     0     0 10602.8592    0  269 751792.000 10602.8592  98.6%     -    1s
     0     0 10602.8638    0  266 751792.000 10602.8638  98.6%     -    1s
     0     0 10615.3764    0  265 751792.000 10615.3764  98.6%     -    2s
     0     0 10617.4760    0  280 751792.000 10617.4760  98.6%     -    2s
     0     0 10617.8588    0  294 751792.000 10617.8588  98.6%     -    2s
     0     0 10617.8922    0  297 751792.000 10617.8922  98.6%     -    2s
     0     0 10621.2948    0  282 751792.000 10621.2948  98.6%     -    2s
     0     0 10621.2948    0  138 751792.000 10621.2948  98.6%     -    2s
H    0     0                    751776.00000 10621.2948  98.6%     -    2s
     0     0 10621.2948    0  182 751776.000 10621.2948  98.6%     -    2s
     0     0 10621.2948    0  229 751776.000 10621.2948  98.6%     -    2s
     0     0 10621.2948    0  270 751776.000 10621.2948  98.6%     -    3s
     0     0 10621.2948    0  269 751776.000 10621.2948  98.6%     -    3s
     0     0 10621.6908    0  274 751776.000 10621.6908  98.6%     -    3s
     0     0 10621.7087    0  275 751776.000 10621.7087  98.6%     -    3s
     0     0 10621.7087    0  275 751776.000 10621.7087  98.6%     -    3s
     0     0 10628.9411    0  301 751776.000 10628.9411  98.6%     -    3s
     0     0 10629.3063    0  304 751776.000 10629.3063  98.6%     -    3s
     0     0 10629.3432    0  302 751776.000 10629.3432  98.6%     -    3s
     0     0 10629.3465    0  304 751776.000 10629.3465  98.6%     -    3s
H    0     0                    395792.00000 10629.3465  97.3%     -    3s
     0     0 10641.3765    0  313 395792.000 10641.3765  97.3%     -    3s
H    0     0                    380256.00000 10641.3765  97.2%     -    3s
     0     0 10645.2075    0  319 380256.000 10645.2075  97.2%     -    3s
     0     0 10645.9355    0  315 380256.000 10645.9355  97.2%     -    3s
     0     0 10646.2942    0  324 380256.000 10646.2942  97.2%     -    3s
     0     0 10646.3569    0  324 380256.000 10646.3569  97.2%     -    3s
     0     0 10646.3605    0  322 380256.000 10646.3605  97.2%     -    3s
     0     0 10652.5150    0  343 380256.000 10652.5150  97.2%     -    4s
H    0     0                    358592.00000 10652.5150  97.0%     -    4s
H    0     0                    325248.00000 10652.5150  96.7%     -    4s
H    0     0                    317712.00000 10652.5150  96.6%     -    4s
H    0     0                    310496.00000 10652.5150  96.6%     -    4s
H    0     0                    297024.00000 10652.5150  96.4%     -    4s
H    0     0                    290768.00000 10652.5150  96.3%     -    4s
H    0     0                    284832.00000 10652.5150  96.3%     -    4s
H    0     0                    279216.00000 10652.5150  96.2%     -    4s
H    0     0                    268944.00000 10652.5150  96.0%     -    4s
     0     0 10654.0750    0  349 268944.000 10654.0750  96.0%     -    4s
     0     0 10654.4831    0  346 268944.000 10654.4831  96.0%     -    4s
     0     0 10654.6025    0  350 268944.000 10654.6025  96.0%     -    4s
     0     0 10654.6066    0  352 268944.000 10654.6066  96.0%     -    4s
     0     0 10655.9232    0  354 268944.000 10655.9232  96.0%     -    4s
H    0     0                    268912.00000 10655.9232  96.0%     -    4s
     0     0 10656.4278    0  340 268912.000 10656.4278  96.0%     -    4s
     0     0 10656.5630    0  345 268912.000 10656.5630  96.0%     -    4s
     0     0 10656.6069    0  361 268912.000 10656.6069  96.0%     -    4s
     0     0 10657.4669    0  374 268912.000 10657.4669  96.0%     -    4s
     0     0 10657.5731    0  375 268912.000 10657.5731  96.0%     -    4s
     0     0 10657.5995    0  383 268912.000 10657.5995  96.0%     -    4s
     0     0 10658.0666    0  369 268912.000 10658.0666  96.0%     -    4s
     0     0 10658.0666    0  364 268912.000 10658.0666  96.0%     -    4s
     0     2 10658.3021    0  357 268912.000 10658.3021  96.0%     -    4s
     1     4 10658.3021    1  358 268912.000 10658.3021  96.0%   100    5s
H   31    40                    231360.00000 10658.6407  95.4%   778    6s
H   34    40                    49024.000000 10658.6407  78.3%   709    6s
H   37    40                    41136.000000 10658.6407  74.1%   695    6s
H   72    81                    40944.000000 10658.6407  74.0%   489    6s
H   73    81                    12368.000000 10658.6407  13.8%   496    6s
H  106   112                    11328.000000 10658.6407  5.91%   507    7s
H  178   171                    11296.000000 10658.6407  5.64%   511    8s
   248   244 10714.9955   21  301 11296.0000 10658.6407  5.64%   566   10s
   616   450 10728.6330   13  215 11296.0000 10658.6407  5.64%   476   15s
   690   499 10789.3837   21  629 11296.0000 10789.3837  4.48%   425   20s
   789   565 10802.3798    5  657 11296.0000 10799.3858  4.40%   371   25s
   877   624 11057.7866   13  712 11296.0000 10805.7217  4.34%   334   30s
   969   685 11003.6328   14  730 11296.0000 10810.8574  4.29%   302   35s
  1022   722 10818.0912   12  729 11296.0000 10818.0912  4.23%   357   40s
  1096   771 11238.6548   33  747 11296.0000 10828.7451  4.14%   333   45s
  1140   802 10831.8512   14  735 11296.0000 10831.8512  4.11%   354   50s
  1189   836 10833.6167    5  751 11296.0000 10833.6167  4.09%   359   55s
  1257   881 11186.9741   17  755 11296.0000 10835.8104  4.07%   340   60s
  1259   882 11275.6852   35  755 11296.0000 10835.8104  4.07%   339   67s
  1266   896 10884.2309   51  617 11296.0000 10865.0367  3.82%   370   70s
  1361   943 10956.3532   58  494 11296.0000 10913.3777  3.39%   471   75s
  1492   979 11221.5556   69  242 11296.0000 10913.3777  3.39%   546   80s
  1638  1012     cutoff   57      11296.0000 10917.2056  3.35%   601   85s
  1813  1023 11036.5602   56  372 11296.0000 10933.0929  3.21%   652   90s
  2081   999 11280.3285   66  269 11296.0000 10941.6216  3.14%   668   96s
* 2140   934              66    11280.000000 10941.6216  3.00%   669   96s
H 2172   904                    11264.000000 10941.6216  2.86%   675   97s
  2292   906 11198.5534   65  200 11264.0000 10970.1227  2.61%   695  100s
  2533   875 11107.0004   67  347 11264.0000 10970.8742  2.60%   714  105s
  2757   869     cutoff   58      11264.0000 10988.2163  2.45%   727  110s
  3046   823     cutoff   67      11264.0000 11002.8388  2.32%   740  116s
  3291   779     cutoff   74      11264.0000 11011.4329  2.24%   756  121s
  3456   762 11130.8414   60  517 11264.0000 11015.1682  2.21%   767  125s
  3766   753     cutoff   62      11264.0000 11020.9516  2.16%   775  131s
  4044   827     cutoff   69      11264.0000 11030.9687  2.07%   775  136s
  4331   855 11147.4376   68  579 11264.0000 11045.2067  1.94%   781  140s
  4629   906 11233.3980   70  275 11264.0000 11050.5801  1.89%   785  149s
  4745   947 11137.1343   56  433 11264.0000 11052.2927  1.88%   787  152s
  4884   978     cutoff   66      11264.0000 11052.2927  1.88%   793  155s
  5146  1031 11233.4374   62  355 11264.0000 11057.6592  1.83%   803  161s
  5505  1065 11170.7697   65  258 11264.0000 11069.0113  1.73%   807  168s
  5718  1107 11254.0832   61  388 11264.0000 11070.8973  1.71%   805  172s
  5941  1148 11222.1707   67  534 11264.0000 11075.4900  1.67%   804  176s
  6267  1202 11136.0907   74  536 11264.0000 11077.3852  1.66%   814  183s
  6456  1249     cutoff   81      11264.0000 11080.2952  1.63%   818  188s
  6710  1258     cutoff   76      11264.0000 11086.1529  1.58%   818  192s
  6929  1332 11256.7527   65  323 11264.0000 11089.7265  1.55%   821  196s
  7232  1345 11205.5004   64  456 11264.0000 11092.8226  1.52%   816  200s

Cutting planes:
  Gomory: 2
  Cover: 9
  Clique: 132
  MIR: 506
  StrongCG: 299
  Flow cover: 198
  GUB cover: 43
  Zero half: 8
  RLT: 1

Explored 7428 nodes (6076654 simplex iterations) in 200.01 seconds (604.66 work units)
Thread count was 8 (of 8 available processors)

Solution count 10: 11264 11280 11296 ... 268912

Time limit reached
Best objective 1.126400000000e+04, best bound 1.110400000000e+04, gap 1.4205%

Gurobi 9.5.2 (mac64[arm]) logging started Mon Apr 24 17:15:46 2023

Set parameter LogFile to value "Java/output/iterative_model/scenario_seed_4_nJob_40_machineCount_1/mip_increment_1/log.txt"
Gurobi Optimizer version 9.5.2 build v9.5.2rc0 (mac64[arm])
Thread count: 8 physical cores, 8 logical processors, using up to 8 threads
Optimize a model with 1907 rows, 8865 columns and 112227 nonzeros
Model fingerprint: 0x69bc526b
Variable types: 0 continuous, 8865 integer (8865 binary)
Coefficient statistics:
  Matrix range     [1e+00, 3e+02]
  Objective range  [4e+02, 1e+06]
  Bounds range     [1e+00, 1e+00]
  RHS range        [1e+00, 1e+00]
Found heuristic solution: objective 4598052.0000
Presolve removed 537 rows and 752 columns
Presolve time: 0.12s
Presolved: 1370 rows, 8113 columns, 101730 nonzeros
Variable types: 0 continuous, 8113 integer (8109 binary)
Found heuristic solution: objective 4417748.0000

Root relaxation: objective 6.634000e+03, 4069 iterations, 0.21 seconds (0.51 work units)

    Nodes    |    Current Node    |     Objective Bounds      |     Work
 Expl Unexpl |  Obj  Depth IntInf | Incumbent    BestBd   Gap | It/Node Time

     0     0 6634.00013    0  123 4417748.00 6634.00013   100%     -    0s
H    0     0                    1417624.0000 6634.00013   100%     -    0s
H    0     0                    1350752.0000 6634.00013   100%     -    0s
H    0     0                    1350080.0000 6634.00013   100%     -    0s
H    0     0                    876144.00000 6634.00013  99.2%     -    0s
     0     0 6636.59566    0  249 876144.000 6636.59566  99.2%     -    0s
H    0     0                    107848.00000 6636.59566  93.8%     -    0s
H    0     0                    106156.00000 6636.59566  93.7%     -    1s
     0     0 6646.30850    0  274 106156.000 6646.30850  93.7%     -    1s
     0     0 6648.49201    0  277 106156.000 6648.49201  93.7%     -    1s
     0     0 6648.49266    0  279 106156.000 6648.49266  93.7%     -    1s
     0     0 6653.98495    0  308 106156.000 6653.98495  93.7%     -    1s
     0     0 6654.30701    0  311 106156.000 6654.30701  93.7%     -    1s
     0     0 6654.36385    0  328 106156.000 6654.36385  93.7%     -    1s
     0     0 6654.36845    0  327 106156.000 6654.36845  93.7%     -    1s
H    0     0                    88196.000000 6654.36845  92.5%     -    2s
H    0     0                    53604.000000 6654.36845  87.6%     -    2s
     0     0 6658.80876    0  341 53604.0000 6658.80876  87.6%     -    2s
H    0     0                    50708.000000 6658.80876  86.9%     -    2s
     0     0 6658.80876    0  123 50708.0000 6658.80876  86.9%     -    2s
H    0     0                    50668.000000 6658.80876  86.9%     -    2s
     0     0 6658.80876    0  294 50668.0000 6658.80876  86.9%     -    2s
     0     0 6659.89151    0  317 50668.0000 6659.89151  86.9%     -    2s
     0     0 6660.69161    0  319 50668.0000 6660.69161  86.9%     -    2s
     0     0 6660.78921    0  326 50668.0000 6660.78921  86.9%     -    3s
     0     0 6660.79468    0  336 50668.0000 6660.79468  86.9%     -    3s
     0     0 6665.72606    0  359 50668.0000 6665.72606  86.8%     -    3s
     0     0 6666.47083    0  363 50668.0000 6666.47083  86.8%     -    3s
     0     0 6666.57732    0  365 50668.0000 6666.57732  86.8%     -    3s
     0     0 6666.59421    0  368 50668.0000 6666.59421  86.8%     -    3s
     0     0 6666.59435    0  367 50668.0000 6666.59435  86.8%     -    3s
     0     0 6672.50610    0  408 50668.0000 6672.50610  86.8%     -    3s
     0     0 6673.38315    0  389 50668.0000 6673.38315  86.8%     -    3s
     0     0 6673.44322    0  399 50668.0000 6673.44322  86.8%     -    3s
     0     0 6673.48942    0  381 50668.0000 6673.48942  86.8%     -    3s
     0     0 6673.51614    0  392 50668.0000 6673.51614  86.8%     -    3s
     0     0 6673.51700    0  397 50668.0000 6673.51700  86.8%     -    3s
     0     0 6687.67622    0  385 50668.0000 6687.67622  86.8%     -    4s
H    0     0                    50664.000000 6687.67622  86.8%     -    4s
H    0     0                    50548.000000 6687.67622  86.8%     -    4s
H    0     0                    50536.000000 6687.67622  86.8%     -    4s
     0     0 6689.21087    0  389 50536.0000 6689.21087  86.8%     -    4s
     0     0 6689.34146    0  404 50536.0000 6689.34146  86.8%     -    4s
     0     0 6689.34902    0  402 50536.0000 6689.34902  86.8%     -    4s
     0     0 6707.49723    0  405 50536.0000 6707.49723  86.7%     -    4s
     0     0 6709.05661    0  407 50536.0000 6709.05661  86.7%     -    4s
     0     0 6709.51134    0  423 50536.0000 6709.51134  86.7%     -    4s
     0     0 6709.58171    0  421 50536.0000 6709.58171  86.7%     -    4s
     0     0 6709.59205    0  416 50536.0000 6709.59205  86.7%     -    4s
     0     0 6735.19198    0  407 50536.0000 6735.19198  86.7%     -    4s
     0     0 6735.91878    0  424 50536.0000 6735.91878  86.7%     -    4s
     0     0 6736.76651    0  427 50536.0000 6736.76651  86.7%     -    4s
     0     0 6736.86912    0  434 50536.0000 6736.86912  86.7%     -    4s
     0     0 6736.89907    0  439 50536.0000 6736.89907  86.7%     -    4s
H    0     0                    50516.000000 6736.89907  86.7%     -    5s
     0     0 6748.35198    0  417 50516.0000 6748.35198  86.6%     -    5s
H    0     0                    50512.000000 6748.35198  86.6%     -    5s
     0     0 6749.62151    0  448 50512.0000 6749.62151  86.6%     -    5s
     0     0 6749.89927    0  446 50512.0000 6749.89927  86.6%     -    5s
     0     0 6749.90951    0  440 50512.0000 6749.90951  86.6%     -    5s
H    0     0                    33972.000000 6749.90951  80.1%     -    5s
H    0     0                    33964.000000 6749.90951  80.1%     -    5s
     0     0 6767.50949    0  421 33964.0000 6767.50949  80.1%     -    5s
     0     0 6769.52132    0  438 33964.0000 6769.52132  80.1%     -    5s
     0     0 6770.03315    0  442 33964.0000 6770.03315  80.1%     -    5s
     0     0 6770.30267    0  445 33964.0000 6770.30267  80.1%     -    5s
     0     0 6770.31562    0  453 33964.0000 6770.31562  80.1%     -    5s
     0     0 6775.44306    0  455 33964.0000 6775.44306  80.1%     -    5s
     0     0 6777.04519    0  469 33964.0000 6777.04519  80.0%     -    6s
     0     0 6777.38445    0  469 33964.0000 6777.38445  80.0%     -    6s
     0     0 6777.52370    0  472 33964.0000 6777.52370  80.0%     -    6s
     0     0 6777.58048    0  466 33964.0000 6777.58048  80.0%     -    6s
H    0     0                    24544.000000 6777.58048  72.4%     -    6s
     0     0 6782.10690    0  484 24544.0000 6782.10690  72.4%     -    6s
     0     0 6782.40515    0  486 24544.0000 6782.40515  72.4%     -    6s
     0     0 6782.79580    0  488 24544.0000 6782.79580  72.4%     -    6s
     0     0 6782.89417    0  491 24544.0000 6782.89417  72.4%     -    6s
     0     0 6784.33135    0  487 24544.0000 6784.33135  72.4%     -    6s
     0     0 6784.68453    0  498 24544.0000 6784.68453  72.4%     -    6s
     0     0 6784.77968    0  510 24544.0000 6784.77968  72.4%     -    6s
     0     0 6786.52918    0  490 24544.0000 6786.52918  72.3%     -    6s
     0     0 6787.34991    0  531 24544.0000 6787.34991  72.3%     -    6s
     0     0 6787.51916    0  539 24544.0000 6787.51916  72.3%     -    6s
     0     0 6787.67217    0  532 24544.0000 6787.67217  72.3%     -    6s
     0     0 6792.63327    0  516 24544.0000 6792.63327  72.3%     -    7s
     0     0 6793.08217    0  513 24544.0000 6793.08217  72.3%     -    7s
     0     0 6793.20784    0  526 24544.0000 6793.20784  72.3%     -    7s
     0     0 6795.02137    0  524 24544.0000 6795.02137  72.3%     -    7s
     0     0 6795.31511    0  545 24544.0000 6795.31511  72.3%     -    7s
     0     0 6795.41935    0  551 24544.0000 6795.41935  72.3%     -    7s
     0     0 6796.76465    0  519 24544.0000 6796.76465  72.3%     -    7s
     0     0 6796.76465    0  513 24544.0000 6796.76465  72.3%     -    7s
     0     2 6796.77229    0  513 24544.0000 6796.77229  72.3%     -    9s
     7    16 6995.99091    3  293 24544.0000 6809.68232  72.3%  1577   10s
   101   100 7147.13725    9  239 24544.0000 6835.73289  72.1%  1263   15s
H  247   231                    18760.000000 6835.73289  63.6%   961   20s
H  248   231                    12408.000000 6835.73289  44.9%   957   20s
H  249   231                    7784.0000000 6835.73289  12.2%   962   20s
H  300   260                    7504.0000000 6857.66397  8.61%   879   21s
H  469   330                    7436.0000000 6859.33773  7.76%   752   22s
   700   451 6939.99005   12  317 7436.00000 6859.33773  7.76%   689   25s
  1261   670 7030.41771   16  255 7436.00000 6894.23011  7.29%   630   30s
H 1509   709                    7412.0000000 6903.08674  6.87%   606   32s
  1519   716 7203.46869   13  520 7412.00000 6903.08674  6.87%   602   35s
H 1519   680                    7408.0000000 6903.08674  6.82%   602   35s
H 1519   645                    7404.0000000 6903.08674  6.77%   602   35s
  1527   653 6903.08674   16  413 7404.00000 6903.08674  6.77%   614   40s
  1533   663 6944.37703   18  395 7404.00000 6903.08674  6.77%   616   45s
  1606   701 6988.74720   22  345 7404.00000 6903.08674  6.77%   668   50s
H 1722   692                    7400.0000000 6903.08674  6.72%   701   53s
* 1815   661              42    7344.0000000 6905.39537  5.97%   699   54s
  1821   669 7221.04277   23  205 7344.00000 6905.39537  5.97%   698   55s
H 1823   640                    7284.0000000 6905.39537  5.20%   698   55s
  2042   659 6985.53424   24  387 7284.00000 6924.23266  4.94%   733   60s
  2349   653 7173.99038   30  269 7284.00000 6924.23266  4.94%   737   65s
  2866   599 7183.56510   26  272 7284.00000 6945.02120  4.65%   727   70s
  3395   573     cutoff   31      7284.00000 7009.56213  3.77%   730   75s
  3842   647     cutoff   26      7284.00000 7034.19774  3.43%   724   80s
  4437   730 7137.91744   27  271 7284.00000 7053.37501  3.17%   714   85s
  5320   792 7244.29300   30  252 7284.00000 7106.62135  2.44%   684   90s
  6165   919 7278.67689   35  197 7284.00000 7141.06650  1.96%   656   95s
  7547  1140 7277.01333   27   70 7284.00000 7172.91115  1.53%   594  100s
* 9043  1169              30    7276.0000000 7186.98374  1.22%   532  101s
  9966  1042 7272.65870   30  129 7276.00000 7201.58499  1.02%   503  105s

Cutting planes:
  Cover: 107
  Clique: 229
  MIR: 335
  StrongCG: 217
  Flow cover: 76
  GUB cover: 105
  Inf proof: 7
  Zero half: 13
  Mod-K: 5
  RLT: 1

Explored 13605 nodes (5569998 simplex iterations) in 108.60 seconds (335.70 work units)
Thread count was 8 (of 8 available processors)

Solution count 10: 7276 7284 7344 ... 7784

Optimal solution found (tolerance 1.00e-04)
Best objective 7.276000000000e+03, best bound 7.276000000000e+03, gap 0.0000%

Gurobi 9.5.2 (mac64[arm]) logging started Mon Apr 24 17:17:34 2023

Set parameter LogFile to value "Java/output/iterative_model/scenario_seed_4_nJob_40_machineCount_1/mip_increment_1/log.txt"
Gurobi Optimizer version 9.5.2 build v9.5.2rc0 (mac64[arm])
Thread count: 8 physical cores, 8 logical processors, using up to 8 threads
Optimize a model with 1902 rows, 5409 columns and 62141 nonzeros
Model fingerprint: 0x83a0e716
Variable types: 0 continuous, 5409 integer (5409 binary)
Coefficient statistics:
  Matrix range     [1e+00, 3e+02]
  Objective range  [2e+02, 2e+05]
  Bounds range     [1e+00, 1e+00]
  RHS range        [1e+00, 1e+00]
Found heuristic solution: objective 494686.00000
Presolve removed 1046 rows and 672 columns
Presolve time: 0.09s
Presolved: 856 rows, 4737 columns, 54368 nonzeros
Variable types: 0 continuous, 4737 integer (4737 binary)
Found heuristic solution: objective 430918.00000

Root relaxation: objective 3.045103e+03, 1912 iterations, 0.05 seconds (0.09 work units)

    Nodes    |    Current Node    |     Objective Bounds      |     Work
 Expl Unexpl |  Obj  Depth IntInf | Incumbent    BestBd   Gap | It/Node Time

     0     0 3045.10336    0   88 430918.000 3045.10336  99.3%     -    0s
H    0     0                    193378.00000 3045.10336  98.4%     -    0s
H    0     0                    73789.000000 3045.10336  95.9%     -    0s
H    0     0                    73786.000000 3045.10336  95.9%     -    0s
     0     0 3050.01495    0  129 73786.0000 3050.01495  95.9%     -    0s
H    0     0                    58609.000000 3050.01495  94.8%     -    0s
     0     0 3051.14899    0  125 58609.0000 3051.14899  94.8%     -    0s
H    0     0                    57738.000000 3051.14899  94.7%     -    0s
H    0     0                    57367.000000 3051.14899  94.7%     -    0s
     0     0 3051.19868    0  125 57367.0000 3051.19868  94.7%     -    0s
     0     0 3051.19964    0  129 57367.0000 3051.19964  94.7%     -    0s
H    0     0                    40016.000000 3051.19964  92.4%     -    0s
H    0     0                    21461.000000 3052.88035  85.8%     -    0s
     0     0 3052.88035    0  139 21461.0000 3052.88035  85.8%     -    0s
     0     0 3053.75327    0  125 21461.0000 3053.75327  85.8%     -    0s
     0     0 3053.82243    0  129 21461.0000 3053.82243  85.8%     -    0s
     0     0 3053.86682    0  141 21461.0000 3053.86682  85.8%     -    0s
     0     0 3053.87878    0  135 21461.0000 3053.87878  85.8%     -    0s
     0     0 3053.88201    0  143 21461.0000 3053.88201  85.8%     -    0s
     0     0 3055.59890    0  118 21461.0000 3055.59890  85.8%     -    0s
     0     0 3055.68926    0  141 21461.0000 3055.68926  85.8%     -    0s
     0     0 3055.68935    0  155 21461.0000 3055.68935  85.8%     -    0s
     0     0 3056.15674    0  163 21461.0000 3056.15674  85.8%     -    0s
     0     0 3056.16970    0  163 21461.0000 3056.16970  85.8%     -    0s
     0     0 3056.22371    0  164 21461.0000 3056.22371  85.8%     -    0s
     0     0 3056.27870    0  174 21461.0000 3056.27870  85.8%     -    0s
     0     0 3056.28412    0  164 21461.0000 3056.28412  85.8%     -    0s
     0     0 3056.28609    0  169 21461.0000 3056.28609  85.8%     -    0s
     0     0 3056.72514    0  173 21461.0000 3056.72514  85.8%     -    0s
     0     0 3056.75312    0  179 21461.0000 3056.75312  85.8%     -    0s
     0     0 3056.78049    0  173 21461.0000 3056.78049  85.8%     -    0s
     0     0 3056.79959    0  181 21461.0000 3056.79959  85.8%     -    0s
     0     0 3056.79959    0  181 21461.0000 3056.79959  85.8%     -    0s
     0     0 3057.39791    0  179 21461.0000 3057.39791  85.8%     -    0s
     0     0 3057.43810    0  185 21461.0000 3057.43810  85.8%     -    0s
     0     0 3057.45891    0  175 21461.0000 3057.45891  85.8%     -    0s
     0     0 3057.46228    0  179 21461.0000 3057.46228  85.8%     -    0s
     0     0 3057.85512    0  201 21461.0000 3057.85512  85.8%     -    0s
     0     0 3057.96837    0  194 21461.0000 3057.96837  85.8%     -    0s
     0     0 3058.01938    0  187 21461.0000 3058.01938  85.8%     -    0s
     0     0 3058.02229    0  189 21461.0000 3058.02229  85.8%     -    1s
H    0     0                    20779.000000 3058.19227  85.3%     -    1s
     0     0 3058.19227    0  190 20779.0000 3058.19227  85.3%     -    1s
     0     0 3058.20438    0  195 20779.0000 3058.20438  85.3%     -    1s
     0     0 3058.20438    0  208 20779.0000 3058.20438  85.3%     -    1s
     0     0 3058.31705    0  182 20779.0000 3058.31705  85.3%     -    1s
     0     0 3058.32779    0  192 20779.0000 3058.32779  85.3%     -    1s
     0     0 3058.33021    0  196 20779.0000 3058.33021  85.3%     -    1s
     0     0 3059.34780    0  163 20779.0000 3059.34780  85.3%     -    1s
     0     0 3059.67327    0  185 20779.0000 3059.67327  85.3%     -    1s
     0     0 3059.68358    0  185 20779.0000 3059.68358  85.3%     -    1s
     0     0 3059.69256    0  186 20779.0000 3059.69256  85.3%     -    1s
     0     0 3059.69256    0  198 20779.0000 3059.69256  85.3%     -    1s
H    0     0                    19213.000000 3059.69256  84.1%     -    1s
     0     0 3061.29386    0  174 19213.0000 3061.29386  84.1%     -    1s
     0     0 3061.87282    0  175 19213.0000 3061.87282  84.1%     -    1s
     0     0 3062.02779    0  183 19213.0000 3062.02779  84.1%     -    1s
     0     0 3062.04416    0  183 19213.0000 3062.04416  84.1%     -    1s
     0     0 3062.04541    0  184 19213.0000 3062.04541  84.1%     -    1s
H    0     0                    10498.000000 3062.96353  70.8%     -    1s
H    0     0                    10486.000000 3062.96353  70.8%     -    1s
     0     0 3062.96353    0  184 10486.0000 3062.96353  70.8%     -    1s
     0     0 3063.15201    0  204 10486.0000 3063.15201  70.8%     -    1s
     0     0 3063.21618    0  218 10486.0000 3063.21618  70.8%     -    1s
     0     0 3063.24030    0  215 10486.0000 3063.24030  70.8%     -    1s
     0     0 3063.25209    0  219 10486.0000 3063.25209  70.8%     -    1s
     0     0 3063.96274    0  176 10486.0000 3063.96274  70.8%     -    1s
H    0     0                    7643.0000000 3063.96274  59.9%     -    1s
     0     0 3063.97656    0  172 7643.00000 3063.97656  59.9%     -    1s
     0     0 3064.00147    0  174 7643.00000 3064.00147  59.9%     -    1s
     0     0 3064.00303    0  175 7643.00000 3064.00303  59.9%     -    1s
     0     0 3064.55875    0  173 7643.00000 3064.55875  59.9%     -    1s
     0     0 3064.55875    0   73 7643.00000 3064.55875  59.9%     -    1s
H    0     0                    7637.0000000 3064.55875  59.9%     -    1s
     0     0 3064.55875    0   98 7637.00000 3064.55875  59.9%     -    1s
     0     0 3064.55875    0  122 7637.00000 3064.55875  59.9%     -    1s
     0     0 3064.55875    0  162 7637.00000 3064.55875  59.9%     -    1s
     0     0 3064.77655    0  163 7637.00000 3064.77655  59.9%     -    1s
     0     0 3064.94819    0  158 7637.00000 3064.94819  59.9%     -    1s
     0     0 3064.95048    0  162 7637.00000 3064.95048  59.9%     -    1s
     0     0 3065.10100    0  205 7637.00000 3065.10100  59.9%     -    1s
H    0     0                    7633.0000000 3065.10100  59.8%     -    1s
     0     0 3065.11704    0  206 7633.00000 3065.11704  59.8%     -    1s
     0     0 3065.12933    0  193 7633.00000 3065.12933  59.8%     -    1s
     0     0 3065.12933    0  195 7633.00000 3065.12933  59.8%     -    1s
     0     0 3065.51491    0  194 7633.00000 3065.51491  59.8%     -    1s
H    0     0                    3066.0000000 3065.51491  0.02%     -    1s

Cutting planes:
  Cover: 1
  Clique: 40
  MIR: 22
  StrongCG: 13
  GUB cover: 36
  Zero half: 12
  RLT: 3

Explored 1 nodes (14558 simplex iterations) in 2.00 seconds (3.53 work units)
Thread count was 8 (of 8 available processors)

Solution count 10: 3066 7633 7637 ... 40016

Optimal solution found (tolerance 1.00e-04)
Best objective 3.066000000000e+03, best bound 3.066000000000e+03, gap 0.0000%

Gurobi 9.5.2 (mac64[arm]) logging started Mon Apr 24 17:17:36 2023

Set parameter LogFile to value "Java/output/iterative_model/scenario_seed_4_nJob_40_machineCount_1/mip_increment_1/log.txt"
Gurobi Optimizer version 9.5.2 build v9.5.2rc0 (mac64[arm])
Thread count: 8 physical cores, 8 logical processors, using up to 8 threads
Optimize a model with 2040 rows, 36533 columns and 426942 nonzeros
Model fingerprint: 0x49fa5682
Variable types: 0 continuous, 36533 integer (36533 binary)
Coefficient statistics:
  Matrix range     [1e+00, 3e+02]
  Objective range  [5e+00, 9e+06]
  Bounds range     [1e+00, 1e+00]
  RHS range        [1e+00, 1e+00]

Warning: Completing partial solution with 36414 unfixed non-continuous variables out of 36533
User MIP start produced solution with objective 21476 (0.03s)
Loaded user MIP start with objective 21476

Presolve removed 36 rows and 2850 columns
Presolve time: 0.46s
Presolved: 2004 rows, 33683 columns, 387964 nonzeros
Variable types: 0 continuous, 33683 integer (33657 binary)

Root simplex log...

Iteration    Objective       Primal Inf.    Dual Inf.      Time
   35947    1.9097927e+04   5.104041e+03   0.000000e+00      5s
   39927    1.9130426e+04   0.000000e+00   0.000000e+00      6s

Root relaxation: objective 1.913043e+04, 39927 iterations, 5.19 seconds (13.16 work units)

    Nodes    |    Current Node    |     Objective Bounds      |     Work
 Expl Unexpl |  Obj  Depth IntInf | Incumbent    BestBd   Gap | It/Node Time

     0     0 19130.4256    0  330 21476.0000 19130.4256  10.9%     -    6s
H    0     0                    21461.000000 19162.7787  10.7%     -    8s
     0     0 19162.7787    0  595 21461.0000 19162.7787  10.7%     -    8s
     0     0 19164.5262    0  608 21461.0000 19164.5262  10.7%     -   10s
     0     0 19164.5444    0  609 21461.0000 19164.5444  10.7%     -   10s
     0     0 19164.5445    0  618 21461.0000 19164.5445  10.7%     -   10s
     0     0 19188.0720    0  636 21461.0000 19188.0720  10.6%     -   13s
     0     0 19188.0720    0  409 21461.0000 19188.0720  10.6%     -   18s
H    0     0                    21404.000000 19188.0720  10.4%     -   18s
     0     0 19193.1259    0  666 21404.0000 19193.1259  10.3%     -   20s
H    0     0                    21398.000000 19193.1259  10.3%     -   20s
     0     0 19212.7235    0  729 21398.0000 19212.7235  10.2%     -   23s
     0     0 19213.2932    0  714 21398.0000 19213.2932  10.2%     -   23s
     0     0 19213.3152    0  718 21398.0000 19213.3152  10.2%     -   23s
     0     0 19213.3153    0  716 21398.0000 19213.3153  10.2%     -   23s
     0     0 19244.2121    0  782 21398.0000 19244.2121  10.1%     -   26s
H    0     0                    21329.000000 19244.2121  9.77%     -   26s
     0     0 19256.9893    0  861 21329.0000 19256.9893  9.71%     -   32s
     0     0 19261.5954    0  906 21329.0000 19261.5954  9.69%     -   35s
     0     0 19262.0795    0  898 21329.0000 19262.0795  9.69%     -   36s
     0     0 19262.0803    0  908 21329.0000 19262.0803  9.69%     -   36s
     0     0 19276.6001    0  959 21329.0000 19276.6001  9.62%     -   39s
H    0     0                    21307.000000 19276.6001  9.53%     -   39s
     0     0 19284.2259    0  985 21307.0000 19284.2259  9.49%     -   42s
     0     0 19286.1318    0  988 21307.0000 19286.1318  9.48%     -   43s
     0     0 19286.2702    0 1005 21307.0000 19286.2702  9.48%     -   44s
     0     0 19286.2975    0  994 21307.0000 19286.2975  9.48%     -   44s
     0     0 19306.7167    0  981 21307.0000 19306.7167  9.39%     -   48s
     0     0 19313.1811    0 1016 21307.0000 19313.1811  9.36%     -   50s
     0     0 19313.8782    0 1031 21307.0000 19313.8782  9.35%     -   51s
     0     0 19314.2707    0 1028 21307.0000 19314.2707  9.35%     -   52s
     0     0 19314.4810    0 1016 21307.0000 19314.4810  9.35%     -   52s
     0     0 19314.5672    0 1036 21307.0000 19314.5672  9.35%     -   52s
     0     0 19314.5717    0 1037 21307.0000 19314.5717  9.35%     -   52s
     0     0 19329.2418    0 1029 21307.0000 19329.2418  9.28%     -   57s
     0     0 19336.0965    0 1025 21307.0000 19336.0965  9.25%     -   61s
     0     0 19338.6751    0 1067 21307.0000 19338.6751  9.24%     -   62s
     0     0 19339.2175    0 1088 21307.0000 19339.2175  9.24%     -   63s
     0     0 19339.3415    0 1112 21307.0000 19339.3415  9.23%     -   63s
     0     0 19339.3476    0 1095 21307.0000 19339.3476  9.23%     -   64s
     0     0 19354.5237    0 1136 21307.0000 19354.5237  9.16%     -   68s
     0     0 19359.5097    0 1159 21307.0000 19359.5097  9.14%     -   70s
     0     0 19362.9958    0 1154 21307.0000 19362.9958  9.12%     -   72s
     0     0 19363.5557    0 1179 21307.0000 19363.5557  9.12%     -   73s
     0     0 19363.8188    0 1186 21307.0000 19363.8188  9.12%     -   73s
     0     0 19363.9546    0 1198 21307.0000 19363.9546  9.12%     -   74s
     0     0 19375.1346    0 1181 21307.0000 19375.1346  9.07%     -   77s
H    0     0                    21300.000000 19375.1346  9.04%     -   77s
     0     0 19378.7053    0 1194 21300.0000 19378.7053  9.02%     -   79s
     0     0 19380.7849    0 1227 21300.0000 19380.7849  9.01%     -   81s
     0     0 19381.9292    0 1242 21300.0000 19381.9292  9.01%     -   82s
     0     0 19382.6667    0 1261 21300.0000 19382.6667  9.00%     -   83s
     0     0 19382.8105    0 1264 21300.0000 19382.8105  9.00%     -   83s
     0     0 19395.8444    0 1195 21300.0000 19395.8444  8.94%     -   87s
     0     0 19402.1783    0 1262 21300.0000 19402.1783  8.91%     -   89s
     0     0 19404.6691    0 1232 21300.0000 19404.6691  8.90%     -   91s
     0     0 19406.6653    0 1255 21300.0000 19406.6653  8.89%     -   92s
     0     0 19407.2053    0 1287 21300.0000 19407.2053  8.89%     -   93s
     0     0 19407.4662    0 1295 21300.0000 19407.4662  8.89%     -   93s
     0     0 19407.5594    0 1302 21300.0000 19407.5594  8.88%     -   94s
     0     0 19422.3722    0 1248 21300.0000 19422.3722  8.82%     -   97s
     0     0 19429.4806    0 1301 21300.0000 19429.4806  8.78%     -  100s
     0     0 19430.4178    0 1331 21300.0000 19430.4178  8.78%     -  101s
     0     0 19431.3868    0 1355 21300.0000 19431.3868  8.77%     -  102s
     0     0 19431.7490    0 1374 21300.0000 19431.7490  8.77%     -  102s
     0     0 19431.8021    0 1392 21300.0000 19431.8021  8.77%     -  103s
     0     0 19439.1626    0 1369 21300.0000 19439.1626  8.74%     -  105s
H    0     0                    21294.000000 19439.1626  8.71%     -  105s
     0     0 19442.5826    0 1395 21294.0000 19442.5826  8.69%     -  107s
     0     0 19444.8252    0 1389 21294.0000 19444.8252  8.68%     -  109s
     0     0 19445.6001    0 1409 21294.0000 19445.6001  8.68%     -  110s
     0     0 19446.2345    0 1398 21294.0000 19446.2345  8.68%     -  110s
     0     0 19446.3354    0 1423 21294.0000 19446.3354  8.68%     -  110s
     0     0 19453.4916    0 1393 21294.0000 19453.4916  8.64%     -  114s
H    0     0                    21293.000000 19453.4916  8.64%     -  114s
H    0     0                    21292.000000 19453.4916  8.63%     -  114s
     0     0 19456.8704    0 1410 21292.0000 19456.8704  8.62%     -  117s
     0     0 19458.2795    0 1434 21292.0000 19458.2795  8.61%     -  118s
     0     0 19458.9821    0 1456 21292.0000 19458.9821  8.61%     -  119s
     0     0 19459.4239    0 1469 21292.0000 19459.4239  8.61%     -  120s
     0     0 19459.6044    0 1489 21292.0000 19459.6044  8.61%     -  120s
     0     0 19466.3124    0 1463 21292.0000 19466.3124  8.57%     -  123s
     0     0 19470.6831    0 1438 21292.0000 19470.6831  8.55%     -  126s
     0     0 19472.5992    0 1472 21292.0000 19472.5992  8.54%     -  127s
     0     0 19473.3097    0 1515 21292.0000 19473.3097  8.54%     -  128s
     0     0 19473.4868    0 1516 21292.0000 19473.4868  8.54%     -  129s
     0     0 19480.6328    0 1478 21292.0000 19480.6328  8.51%     -  133s
     0     0 19482.4509    0 1528 21292.0000 19482.4509  8.50%     -  136s
     0     0 19483.3687    0 1530 21292.0000 19483.3687  8.49%     -  137s
     0     0 19484.0773    0 1541 21292.0000 19484.0773  8.49%     -  138s
     0     0 19484.5520    0 1572 21292.0000 19484.5520  8.49%     -  139s
     0     0 19484.8362    0 1584 21292.0000 19484.8362  8.49%     -  140s
     0     0 19488.2103    0 1559 21292.0000 19488.2103  8.47%     -  142s
     0     0 19489.9261    0 1566 21292.0000 19489.9261  8.46%     -  144s
     0     0 19490.5035    0 1588 21292.0000 19490.5035  8.46%     -  145s
     0     0 19490.9504    0 1581 21292.0000 19490.9504  8.46%     -  146s
     0     0 19491.1030    0 1590 21292.0000 19491.1030  8.46%     -  147s
     0     0 19493.1717    0 1590 21292.0000 19493.1717  8.45%     -  149s
     0     0 19493.9703    0 1625 21292.0000 19493.9703  8.44%     -  152s
     0     0 19494.3671    0 1619 21292.0000 19494.3671  8.44%     -  153s
     0     0 19496.6532    0 1612 21292.0000 19496.6532  8.43%     -  155s
     0     0 19496.6532    0 1597 21292.0000 19496.6532  8.43%     -  156s
     0     2 19496.6592    0 1594 21292.0000 19496.6592  8.43%     -  172s
     1     4 19506.1918    1 1527 21292.0000 19496.6592  8.43%  9839  176s
     3     8 19525.7839    2 1430 21292.0000 19506.1918  8.39%  9510  185s
     7    16 19568.2913    3 1413 21292.0000 19522.5845  8.31% 12678  199s
    15    24 19601.7420    4 1361 21292.0000 19535.8032  8.25% 13860  221s
    23    32 19644.0583    4 1462 21292.0000 19535.8032  8.25% 17406  244s
    31    40 19692.0025    5 1320 21292.0000 19542.1620  8.22% 16481  269s
    39    47 19616.1458    5 1350 21292.0000 19542.1620  8.22% 16925  289s

Cutting planes:
  Gomory: 2
  Cover: 23
  Clique: 411
  MIR: 571
  StrongCG: 316
  GUB cover: 226
  Zero half: 11
  RLT: 6

Explored 46 nodes (1188710 simplex iterations) in 289.02 seconds (834.82 work units)
Thread count was 8 (of 8 available processors)

Solution count 10: 21292 21293 21294 ... 21476

Time limit reached
Best objective 2.129200000000e+04, best bound 1.954300000000e+04, gap 8.2144%
